
Gurobi 7.5.2 (linux64) logging started Sat Jul  7 16:47:12 2018

Changed value of parameter LogFile to result/ilp/simNo_9-n_100-m_40-s_4-minVAF_0.05-cov_10000-k_1-fn_0.15-fp_0.0001-na_0.15.ILP.gurobiSolverLog
   Prev: gurobi.log  Default: 
Changed value of parameter TimeLimit to 86400.0
   Prev: 1e+100  Min: 0.0  Max: 1e+100  Default: 1e+100
Optimize a model with 639293 rows, 10765 columns and 1940420 nonzeros
Variable types: 0 continuous, 10765 integer (10765 binary)
Coefficient statistics:
  Matrix range     [3e-05, 4e+00]
  Objective range  [2e+00, 1e+01]
  Bounds range     [1e+00, 1e+00]
  RHS range        [3e-01, 2e+00]
Found heuristic solution: objective -14206.30660
Presolve removed 132853 rows and 1024 columns (presolve time = 5s) ...
Presolve removed 133432 rows and 1024 columns (presolve time = 14s) ...
Presolve removed 191332 rows and 1603 columns (presolve time = 16s) ...
Presolve removed 191332 rows and 1603 columns (presolve time = 21s) ...
Presolve removed 191332 rows and 1603 columns
Presolve time: 22.05s
Presolved: 447961 rows, 9162 columns, 1348108 nonzeros
Variable types: 0 continuous, 9162 integer (9162 binary)
Presolved: 9162 rows, 457123 columns, 1357270 nonzeros

Presolve removed 9162 rows and 457123 columns

Root simplex log...

Iteration    Objective       Primal Inf.    Dual Inf.      Time
       0    1.1039371e+01   0.000000e+00   6.737500e+04     26s
   21592   -2.4748394e+02   0.000000e+00   1.534800e+05     30s
   37208   -2.8854902e+02   0.000000e+00   1.211901e+05     35s
   47349   -3.1169021e+02   0.000000e+00   0.000000e+00     39s
   47349   -3.1169021e+02   0.000000e+00   0.000000e+00     40s

Root relaxation: objective -3.116902e+02, 47349 iterations, 15.83 seconds
Total elapsed time = 40.37s
Total elapsed time = 96.18s
Total elapsed time = 145.35s
Total elapsed time = 171.48s

    Nodes    |    Current Node    |     Objective Bounds      |     Work
 Expl Unexpl |  Obj  Depth IntInf | Incumbent    BestBd   Gap | It/Node Time

     0     0 -311.69021    0  849 -14206.307 -311.69021  97.8%     -  179s
H    0     0                    -406.2381619 -311.69021  23.3%     -  182s
H    0     0                    -358.5382927 -311.69021  13.1%     -  194s
     0     0 -315.09734    0  837 -358.53829 -315.09734  12.1%     -  225s
     0     0 -318.90189    0  834 -358.53829 -318.90189  11.1%     -  388s
     0     0 -318.93037    0  787 -358.53829 -318.93037  11.0%     -  408s
     0     0 -319.04896    0  859 -358.53829 -319.04896  11.0%     -  508s
     0     0 -319.07233    0  840 -358.53829 -319.07233  11.0%     -  527s
     0     0 -319.78215    0  764 -358.53829 -319.78215  10.8%     -  698s
     0     0 -319.78215    0  785 -358.53829 -319.78215  10.8%     -  784s
     0     0 -320.35000    0  824 -358.53829 -320.35000  10.7%     - 1061s
     0     0 -320.49197    0  829 -358.53829 -320.49197  10.6%     - 1114s
     0     0 -320.49197    0  825 -358.53829 -320.49197  10.6%     - 1117s
     0     0 -321.48572    0  831 -358.53829 -321.48572  10.3%     - 1909s
     0     0 -321.65237    0  824 -358.53829 -321.65237  10.3%     - 2654s
     0     0 -321.65237    0  825 -358.53829 -321.65237  10.3%     - 2659s
     0     0 -323.12475    0 1006 -358.53829 -323.12475  9.88%     - 5948s
     0     0 -323.29576    0  995 -358.53829 -323.29576  9.83%     - 6099s
     0     0 -323.43772    0  988 -358.53829 -323.43772  9.79%     - 6135s
     0     0 -323.43772    0  989 -358.53829 -323.43772  9.79%     - 6138s
     0     0 -323.43772    0  995 -358.53829 -323.43772  9.79%     - 6153s
     0     0 -324.00557    0 1007 -358.53829 -324.00557  9.63%     - 6381s
     0     0 -324.00557    0 1009 -358.53829 -324.00557  9.63%     - 6385s
     0     0 -324.00557    0 1019 -358.53829 -324.00557  9.63%     - 6397s
     0     0 -324.28950    0 1012 -358.53829 -324.28950  9.55%     - 6499s
     0     0 -324.50245    0 1040 -358.53829 -324.50245  9.49%     - 6517s
     0     0 -324.50245    0 1032 -358.53829 -324.50245  9.49%     - 6521s
     0     0 -325.47885    0 1000 -358.53829 -325.47885  9.22%     - 7148s
     0     0 -326.17052    0  996 -358.53829 -326.17052  9.03%     - 7340s
     0     0 -326.17052    0  997 -358.53829 -326.17052  9.03%     - 7345s
     0     0 -327.59016    0 1000 -358.53829 -327.59016  8.63%     - 17649s
     0     0 -327.82677    0  986 -358.53829 -327.82677  8.57%     - 17689s
     0     0 -327.82677    0  985 -358.53829 -327.82677  8.57%     - 17691s
     0     0 -329.04529    0  995 -358.53829 -329.04529  8.23%     - 20554s
     0     0 -329.28359    0  985 -358.53829 -329.28359  8.16%     - 20599s
     0     0 -329.29373    0  986 -358.53829 -329.29373  8.16%     - 20611s
     0     0 -329.29373    0  988 -358.53829 -329.29373  8.16%     - 20613s
     0     0 -330.14551    0  955 -358.53829 -330.14551  7.92%     - 21478s
     0     0 -330.57141    0  899 -358.53829 -330.57141  7.80%     - 22094s
     0     0 -330.61197    0  896 -358.53829 -330.61197  7.79%     - 22144s
     0     0 -330.64239    0  895 -358.53829 -330.64239  7.78%     - 22169s
     0     0 -330.64239    0  895 -358.53829 -330.64239  7.78%     - 22171s
     0     0 -330.64239    0  889 -358.53829 -330.64239  7.78%     - 22188s
     0     0 -330.95362    0  975 -358.53829 -330.95362  7.69%     - 23511s
     0     0 -330.99730    0 1000 -358.53829 -330.99730  7.68%     - 23519s
     0     0 -330.99730    0 1007 -358.53829 -330.99730  7.68%     - 23523s
     0     0 -331.49417    0  976 -358.53829 -331.49417  7.54%     - 23591s
     0     0 -331.56515    0  975 -358.53829 -331.56515  7.52%     - 23609s
     0     0 -331.70712    0  963 -358.53829 -331.70712  7.48%     - 23621s
     0     0 -331.72953    0  977 -358.53829 -331.72953  7.48%     - 23631s
     0     0 -331.75117    0  979 -358.53829 -331.75117  7.47%     - 23642s
     0     0 -331.76035    0  979 -358.53829 -331.76035  7.47%     - 23646s
     0     0 -331.76035    0  979 -358.53829 -331.76035  7.47%     - 23650s
     0     0 -332.08569    0  998 -358.53829 -332.08569  7.38%     - 24129s
     0     0 -332.37518    0 1013 -358.53829 -332.37518  7.30%     - 25571s
     0     0 -332.68058    0 1023 -358.53829 -332.68058  7.21%     - 26561s
     0     0 -332.68058    0 1018 -358.53829 -332.68058  7.21%     - 26564s
     0     0 -333.13511    0 1016 -358.53829 -333.13511  7.09%     - 26629s
     0     0 -333.23460    0 1037 -358.53829 -333.23460  7.06%     - 26645s
     0     0 -333.23559    0 1034 -358.53829 -333.23559  7.06%     - 26652s
     0     0 -333.91788    0 1009 -358.53829 -333.91788  6.87%     - 26957s
     0     0 -333.98564    0 1033 -358.53829 -333.98564  6.85%     - 27001s
     0     0 -334.04952    0 1015 -358.53829 -334.04952  6.83%     - 27031s
     0     0 -334.04952    0 1015 -358.53829 -334.04952  6.83%     - 27035s
     0     0 -334.49409    0 1013 -358.53829 -334.49409  6.71%     - 27210s
     0     0 -334.68494    0 1009 -358.53829 -334.68494  6.65%     - 27315s
     0     0 -334.70367    0 1009 -358.53829 -334.70367  6.65%     - 27323s
     0     0 -334.70367    0 1010 -358.53829 -334.70367  6.65%     - 27325s
     0     0 -335.25621    0 1010 -358.53829 -335.25621  6.49%     - 27661s
     0     0 -335.68211    0 1015 -358.53829 -335.68211  6.37%     - 27973s
     0     0 -335.71487    0 1018 -358.53829 -335.71487  6.37%     - 27999s
     0     0 -335.71487    0 1019 -358.53829 -335.71487  6.37%     - 28006s
     0     0 -336.18367    0 1030 -358.53829 -336.18367  6.23%     - 29199s
     0     0 -336.20684    0 1038 -358.53829 -336.20684  6.23%     - 29229s
     0     0 -336.26347    0 1039 -358.53829 -336.26347  6.21%     - 29531s
     0     0 -336.27635    0 1039 -358.53829 -336.27635  6.21%     - 29552s
     0     0 -336.27835    0 1042 -358.53829 -336.27835  6.21%     - 29575s
     0     0 -336.57648    0 1026 -358.53829 -336.57648  6.13%     - 29777s
     0     0 -336.86041    0 1048 -358.53829 -336.86041  6.05%     - 31146s
     0     0 -336.97023    0 1037 -358.53829 -336.97023  6.02%     - 31243s
     0     0 -336.98108    0 1038 -358.53829 -336.98108  6.01%     - 31276s
     0     0 -336.98533    0 1039 -358.53829 -336.98533  6.01%     - 31294s
     0     0 -336.98533    0 1039 -358.53829 -336.98533  6.01%     - 31298s
     0     0 -337.64121    0  674 -358.53829 -337.64121  5.83%     - 33662s
     0     0 -337.98598    0  672 -358.53829 -337.98598  5.73%     - 34786s
     0     0 -338.03161    0  685 -358.53829 -338.03161  5.72%     - 34845s
     0     0 -338.03161    0  676 -358.53829 -338.03161  5.72%     - 34856s
     0     0 -338.25274    0  681 -358.53829 -338.25274  5.66%     - 35109s
H    0     0                    -356.8347260 -338.25274  5.21%     - 35124s
     0     0 -338.30371    0  678 -356.83473 -338.30371  5.19%     - 35171s
     0     0 -338.30371    0  683 -356.83473 -338.30371  5.19%     - 35176s
     0     0 -338.58591    0  669 -356.83473 -338.58591  5.11%     - 36248s
     0     0 -338.61932    0  685 -356.83473 -338.61932  5.10%     - 36345s
     0     0 -338.62255    0  684 -356.83473 -338.62255  5.10%     - 36361s
     0     0 -338.62255    0  687 -356.83473 -338.62255  5.10%     - 36365s
     0     0 -338.85601    0  682 -356.83473 -338.85601  5.04%     - 38409s
     0     0 -338.94728    0  675 -356.83473 -338.94728  5.01%     - 38907s
     0     0 -339.08924    0  687 -356.83473 -339.08924  4.97%     - 40744s
     0     0 -339.08924    0  687 -356.83473 -339.08924  4.97%     - 40749s
     0     0 -339.47338    0  680 -356.83473 -339.47338  4.87%     - 40802s
     0     0 -339.56458    0  680 -356.83473 -339.56458  4.84%     - 40830s
     0     0 -339.56458    0  684 -356.83473 -339.56458  4.84%     - 40835s
     0     0 -339.70654    0  689 -356.83473 -339.70654  4.80%     - 40919s
     0     0 -339.74332    0  699 -356.83473 -339.74332  4.79%     - 40960s
     0     0 -339.76333    0  696 -356.83473 -339.76333  4.78%     - 41010s
     0     0 -339.76632    0  696 -356.83473 -339.76632  4.78%     - 41040s
     0     0 -339.76632    0  696 -356.83473 -339.76632  4.78%     - 41044s
     0     0 -339.92779    0  693 -356.83473 -339.92779  4.74%     - 42021s
     0     0 -339.97884    0  696 -356.83473 -339.97884  4.72%     - 42278s
     0     0 -340.08597    0  695 -356.83473 -340.08597  4.69%     - 42648s
     0     0 -340.08803    0  694 -356.83473 -340.08803  4.69%     - 42666s
     0     0 -340.09089    0  697 -356.83473 -340.09089  4.69%     - 42684s
     0     0 -340.09428    0  698 -356.83473 -340.09428  4.69%     - 42720s
     0     0 -340.09428    0  700 -356.83473 -340.09428  4.69%     - 42724s
     0     0 -340.17671    0  699 -356.83473 -340.17671  4.67%     - 42770s
     0     0 -340.34426    0  691 -356.83473 -340.34426  4.62%     - 42922s
     0     0 -340.37847    0  695 -356.83473 -340.37847  4.61%     - 42997s
     0     0 -340.37989    0  695 -356.83473 -340.37989  4.61%     - 43017s
     0     0 -341.06553    0  689 -356.83473 -341.06553  4.42%     - 43306s
     0     0 -341.08919    0  692 -356.83473 -341.08919  4.41%     - 43399s
     0     0 -341.09330    0  691 -356.83473 -341.09330  4.41%     - 43429s
     0     0 -341.09330    0  696 -356.83473 -341.09330  4.41%     - 43434s
     0     0 -341.10424    0  695 -356.83473 -341.10424  4.41%     - 43473s
H    0     0                    -355.1311592 -341.10424  3.95%     - 43482s
     0     0 -341.24370    0  687 -355.13116 -341.24370  3.91%     - 43636s
     0     0 -341.27847    0  691 -355.13116 -341.27847  3.90%     - 43653s
     0     0 -341.27847    0  686 -355.13116 -341.27847  3.90%     - 43657s
     0     0 -341.40015    0  687 -355.13116 -341.40015  3.87%     - 43921s
     0     0 -341.40015    0  684 -355.13116 -341.40015  3.87%     - 43934s
     0     0 -341.40952    0  685 -355.13116 -341.40952  3.86%     - 44029s
     0     0 -341.45866    0  691 -355.13116 -341.45866  3.85%     - 44294s
     0     0 -341.46545    0  691 -355.13116 -341.46545  3.85%     - 44362s
     0     0 -341.47722    0  692 -355.13116 -341.47722  3.84%     - 44378s
     0     0 -341.47722    0  693 -355.13116 -341.47722  3.84%     - 44383s
     0     0 -341.47783    0  675 -355.13116 -341.47783  3.84%     - 45156s
     0     0 -341.47783    0  676 -355.13116 -341.47783  3.84%     - 45168s
     0     0 -341.69702    0  666 -355.13116 -341.69702  3.78%     - 45272s
     0     0 -341.82156    0  666 -355.13116 -341.82156  3.75%     - 45309s
     0     0 -341.85400    0  666 -355.13116 -341.85400  3.74%     - 45335s
     0     0 -341.85976    0  662 -355.13116 -341.85976  3.74%     - 45343s
     0     0 -341.86300    0  665 -355.13116 -341.86300  3.74%     - 45361s
     0     0 -341.86300    0  666 -355.13116 -341.86300  3.74%     - 45365s
     0     0 -342.07514    0  663 -355.13116 -342.07514  3.68%     - 45387s
     0     0 -342.09698    0  664 -355.13116 -342.09698  3.67%     - 45409s
     0     0 -342.09698    0  666 -355.13116 -342.09698  3.67%     - 45414s
     0     0 -342.17160    0  666 -355.13116 -342.17160  3.65%     - 45495s
     0     0 -342.17811    0  667 -355.13116 -342.17811  3.65%     - 45524s
     0     0 -342.17868    0  667 -355.13116 -342.17868  3.65%     - 45529s
     0     0 -342.19634    0  665 -355.13116 -342.19634  3.64%     - 45562s
     0     0 -342.19796    0  671 -355.13116 -342.19796  3.64%     - 45594s
     0     0 -342.27181    0  646 -355.13116 -342.27181  3.62%     - 46167s
     0     0 -342.31094    0  645 -355.13116 -342.31094  3.61%     - 46182s
     0     0 -342.31427    0  648 -355.13116 -342.31427  3.61%     - 46186s
     0     0 -342.31427    0  649 -355.13116 -342.31427  3.61%     - 46188s
     0     0 -342.36480    0  648 -355.13116 -342.36480  3.59%     - 46197s
     0     0 -342.36686    0  652 -355.13116 -342.36686  3.59%     - 46206s
     0     0 -342.45707    0  651 -355.13116 -342.45707  3.57%     - 46214s
     0     0 -342.49221    0  648 -355.13116 -342.49221  3.56%     - 46233s
     0     0 -342.49438    0  650 -355.13116 -342.49438  3.56%     - 46245s
     0     0 -342.57643    0  643 -355.13116 -342.57643  3.54%     - 46278s
     0     0 -342.65079    0  650 -355.13116 -342.65079  3.51%     - 46300s
     0     0 -342.66048    0  653 -355.13116 -342.66048  3.51%     - 46308s
     0     0 -342.66427    0  653 -355.13116 -342.66427  3.51%     - 46319s
     0     0 -342.67081    0  650 -355.13116 -342.67081  3.51%     - 46326s
     0     0 -342.67322    0  652 -355.13116 -342.67322  3.51%     - 46335s
     0     0 -342.86455    0  648 -355.13116 -342.86455  3.45%     - 46376s
     0     0 -342.94571    0  651 -355.13116 -342.94571  3.43%     - 46394s
     0     0 -342.99840    0  655 -355.13116 -342.99840  3.42%     - 46402s
     0     0 -343.02143    0  653 -355.13116 -343.02143  3.41%     - 46422s
     0     0 -343.03071    0  653 -355.13116 -343.03071  3.41%     - 46436s
     0     0 -343.03071    0  653 -355.13116 -343.03071  3.41%     - 46439s
     0     0 -343.03071    0  655 -355.13116 -343.03071  3.41%     - 46443s
     0     0 -343.03071    0  654 -355.13116 -343.03071  3.41%     - 46450s
     0     0 -343.05445    0  657 -355.13116 -343.05445  3.40%     - 46458s
     0     0 -343.05445    0  649 -355.13116 -343.05445  3.40%     - 46724s
     0     2 -343.06213    0  646 -355.13116 -343.06213  3.40%     - 46934s
     1     3 -343.82272    1  595 -355.13116 -343.07200  3.40%  4721 46943s
     2     4 -348.90095    2  869 -355.13116 -343.07200  3.40%  5018 46975s
     3     5 -344.10530    2  586 -355.13116 -343.07200  3.40%  3453 46980s
     5     7 -345.17637    4  584 -355.13116 -343.07200  3.40%  2277 46989s
     6     8 -351.18684    4  838 -355.13116 -343.07200  3.40%  3834 47063s
     7     9 -345.79703    5  557 -355.13116 -343.07200  3.40%  3338 47065s
     8    10 -352.39613    5  842 -355.13116 -343.07200  3.40%  4068 47116s
     9    11 -346.11645    6  498 -355.13116 -343.07200  3.40%  3642 47131s
    10    12 -353.99545    6  467 -355.13116 -343.07200  3.40%  3882 47160s
    15    11 -346.66200    1  368 -355.13116 -344.10939  3.10%  3108 47263s
    16    12 -351.74023    2  649 -355.13116 -344.10939  3.10%  3059 47315s
    17    13 -346.94457    2  354 -355.13116 -344.10939  3.10%  2913 47321s
    18    14 -347.03922    3  329 -355.13116 -344.10939  3.10%  2761 47328s
    19    13     cutoff    3      -355.13116 -344.10939  3.10%  2923 47365s
    21    15 -347.89100    5  343 -355.13116 -344.10939  3.10%  2695 47372s
    22    14     cutoff    5      -355.13116 -344.10939  3.10%  2662 47382s
    23    15 -348.26679    6  347 -355.13116 -344.10939  3.10%  2577 47386s
    24    16 -348.88475    7  346 -355.13116 -344.10939  3.10%  2483 47405s
    27    19 -350.26278   10  349 -355.13116 -344.10939  3.10%  2234 47421s
    29    19     cutoff   11      -355.13116 -344.10939  3.10%  2106 47426s
    31    21 -351.72403   13  337 -355.13116 -344.10939  3.10%  2003 47433s
    32    20     cutoff   13      -355.13116 -344.10939  3.10%  1959 47435s
    34    22 -353.85348   15  286 -355.13116 -344.10939  3.10%  1861 47440s
    38    20 -354.27938   14  292 -355.13116 -344.10939  3.10%  1700 47447s
    41    19 -352.91330    3  858 -355.13116 -346.11645  2.54%  1920 47609s
    42    20 -353.99545    4  434 -355.13116 -346.11645  2.54%  1884 47616s
    43    19     cutoff    5      -355.13116 -346.11645  2.54%  1851 47620s
    44    20 -354.84723    5  463 -355.13116 -346.11645  2.54%  1828 47626s
    45    21 -354.84723    6  428 -355.13116 -346.11645  2.54%  1788 47631s
    49    19 -346.18743    7  556 -355.13116 -346.18743  2.52%  1650 47635s
    50    20 -347.69127    8  585 -355.13116 -346.24980  2.50%  1642 47644s
    51    21 -347.76932    9  579 -355.13116 -346.24980  2.50%  1616 47647s
    52    20     cutoff    9      -355.13116 -346.24980  2.50%  1862 47865s
    53    21 -348.19521   10  554 -355.13116 -346.24980  2.50%  1857 47878s
    54    20     cutoff   10      -355.13116 -346.24980  2.50%  2367 48445s
    55    19     cutoff    8      -355.13116 -346.24980  2.50%  2860 48979s
    56    20 -348.62110   11  578 -355.13116 -346.24980  2.50%  2841 49031s
    57    19     cutoff   11      -355.13116 -346.24980  2.50%  2976 49208s
    58    20 -349.04699   12  566 -355.13116 -346.24980  2.50%  2952 49222s
    59    19     cutoff   12      -355.13116 -346.24980  2.50%  3302 49641s
    62    22 -349.61485   15  573 -355.13116 -346.24980  2.50%  3154 49653s
    63    21     cutoff   14      -355.13116 -346.24980  2.50%  3329 49912s
    64    20     cutoff   15      -355.13116 -346.24980  2.50%  4227 51276s
    65    19     cutoff   13      -355.13116 -346.24980  2.50% 12376 72296s
    66    20 -350.32467   16  606 -355.13116 -346.24980  2.50% 12259 72373s
    67    21 -350.53761   17  595 -355.13116 -346.24980  2.50% 12087 72385s
    68    20     cutoff   17      -355.13116 -346.24980  2.50% 12584 73259s
    69    21 -351.31841   18  589 -355.13116 -346.24980  2.50% 12545 73425s
    70    20     cutoff   18      -355.13116 -346.24980  2.50% 13984 75753s
    71    21 -351.38940   19  548 -355.13116 -346.24980  2.50% 13819 75769s
    72    20     cutoff   19      -355.13116 -346.24980  2.50% 14146 76137s
    74    22 -351.43199   21  548 -355.13116 -346.24980  2.50% 13768 76140s
    75    21     cutoff   20      -355.13116 -346.24980  2.50% 14071 76493s
    76    20     cutoff   21      -355.13116 -346.24980  2.50% 14323 76759s
    77    21 -352.24118   22  585 -355.13116 -346.24980  2.50% 14228 76808s
    78    20     cutoff   22      -355.13116 -346.24980  2.50% 14396 77032s
    79    21 -353.02198   23  594 -355.13116 -346.24980  2.50% 15411 78258s
    80    20     cutoff   24      -355.13116 -346.24980  2.50% 15228 78263s
    81    19     cutoff   24      -355.13116 -346.24980  2.50% 17021 80240s
    82    18     cutoff   23      -355.13116 -346.24980  2.50% 19162 82124s
    83    17     cutoff    7      -355.13116 -347.03922  2.28% 19123 82199s
    84    16     cutoff    4      -355.13116 -347.89100  2.04% 19091 82274s
    85    15     cutoff    6      -355.13116 -348.26879  1.93% 19051 82394s
    86    14     cutoff    7      -355.13116 -348.88475  1.76% 19436 82878s
    87    13     cutoff    8      -355.13116 -348.91232  1.75% 19424 82996s
    88    14 -349.64098    3  539 -355.13116 -348.94568  1.74% 19234 83025s
    89    15 -349.77709    4  515 -355.13116 -348.94568  1.74% 19031 83031s
    90    16 -350.31927    5  505 -355.13116 -348.94568  1.74% 18878 83077s
    91    17 -350.40985    6  475 -355.13116 -348.94568  1.74% 18684 83087s
    92    18 -350.75056    7  478 -355.13116 -348.94568  1.74% 18485 83090s
    94    20 -351.15617    9  456 -355.13116 -348.94568  1.74% 18133 83136s
    95    21 -351.72403   10  454 -355.13116 -348.94568  1.74% 18038 83203s
    96    22 -352.29188   11  431 -355.13116 -348.94568  1.74% 17888 83241s
    97    23 -352.85974   12  425 -355.13116 -348.94568  1.74% 17720 83250s
    98    24 -353.71152   13  323 -355.13116 -348.94568  1.74% 17547 83256s
    99    25 -354.56330   14  257 -355.13116 -348.94568  1.74% 17380 83266s
   101    25     cutoff   16      -355.13116 -348.94568  1.74% 17063 83284s
   102    24     cutoff   16      -355.13116 -348.94568  1.74% 16989 83354s
   103    23     cutoff   15      -355.13116 -348.94568  1.74% 16882 83389s
   104    22     cutoff   14      -355.13116 -348.94568  1.74% 16783 83430s
   105    21     cutoff    3      -355.13116 -349.59457  1.56% 17264 83899s
   106    20     cutoff    9      -355.13116 -349.59457  1.56% 17278 83996s
   107    19     cutoff   10      -355.13116 -349.61485  1.55% 17182 84024s
   108    18     cutoff   16      -355.13116 -349.64307  1.55% 17198 84133s
   109    17     cutoff    4      -355.13116 -349.77709  1.51% 17258 84267s
   110    18 -354.15769    5  421 -355.13116 -350.32880  1.35% 17274 84368s
   111    17     cutoff    6      -355.13116 -350.32880  1.35% 17185 84405s
   114    18     cutoff    8      -355.13116 -350.32880  1.35% 16794 84439s
   115    17     cutoff    8      -355.13116 -350.32880  1.35% 16652 84442s
   116    16     cutoff    7      -355.13116 -350.32880  1.35% 17117 84977s
   117    15     cutoff    6      -355.13116 -350.40985  1.33% 17108 85067s
   118    14     cutoff    7      -355.13116 -350.75056  1.23% 17046 85115s
   119    13     cutoff    8      -355.13116 -350.75373  1.23% 17015 85179s
   120    14 -351.72403    9  301 -355.13116 -350.81704  1.21% 16960 85232s
   121    15 -352.57581   10  317 -355.13116 -350.81704  1.21% 16913 85297s
   122    16 -353.42759   11  280 -355.13116 -350.81704  1.21% 16783 85301s
   124    16     cutoff   13      -355.13116 -350.81704  1.21% 16554 85326s
   125    15     cutoff   13      -355.13116 -350.81704  1.21% 16465 85349s
   126    14     cutoff   12      -355.13116 -350.81704  1.21% 16391 85380s
   128    16 -353.99545   12  251 -355.13116 -350.81704  1.21% 16147 85386s
   131    13     cutoff   12      -355.13116 -350.81704  1.21% 15824 85405s
   132    12     cutoff   12      -355.13116 -351.15617  1.12% 15735 85415s
   133    13 -354.56330   10  405 -355.13116 -351.20085  1.11% 15754 85517s
   134    12     cutoff   11      -355.13116 -351.20085  1.11% 15670 85536s
   137    13 -352.45413    6  490 -355.13116 -351.20735  1.10% 15337 85541s
   140    16 -354.15769    9  431 -355.13116 -351.20735  1.10% 15013 85545s
   143    17     cutoff   12      -355.13116 -351.20735  1.10% 14715 85552s
   147    13     cutoff    5      -355.13116 -351.60234  0.99% 14850 85984s
   148    12     cutoff    6      -355.13116 -351.72403  0.96% 14800 86013s
   150    14 -352.29188   11  242 -355.13116 -351.72403  0.96% 14645 86042s
   151    13     cutoff   11      -355.13116 -351.72403  0.96% 14619 86090s
   152    12     cutoff   12      -355.13116 -351.72403  0.96% 14604 86144s
   153    13 -352.85974   12  203 -355.13116 -351.72403  0.96% 14534 86159s
   154    12     cutoff   13      -355.13116 -351.72403  0.96% 14467 86177s
   155    11     cutoff   13      -355.13116 -351.72403  0.96% 14404 86195s
   156    10     cutoff   11      -355.13116 -351.75952  0.95% 14431 86288s
   157    11 -352.31801    3  316 -355.13116 -351.83746  0.93% 14346 86291s
   160    12     cutoff    6      -355.13116 -351.83746  0.93% 14124 86323s
   161    11     cutoff    6      -355.13116 -351.83746  0.93% 14049 86328s
   162    10     cutoff    5      -355.13116 -351.83746  0.93% 13988 86344s
   163     9     cutoff    4      -355.13116 -351.83746  0.93% 13976 86393s
   164     8     cutoff    3      -355.13116 -352.29525  0.80% 13895 86395s

Cutting planes:
  Gomory: 3
  Zero half: 289

Explored 165 nodes (4132001 simplex iterations) in 86400.11 seconds
Thread count was 1 (of 80 available processors)

Solution count 5: -355.131 -356.835 -358.538 ... -14206.3

Time limit reached
Best objective -3.551311592248e+02, best bound -3.522952526195e+02, gap 0.7986%
